proyfinal/src/viki/013/experimentInOfficeAgust.take6.output/7e3f0ce7-d2f1-4287-b4f6-62593d9b7606.als.out
Reading from standard input... Use '--help' for help.
============================[ Problem Statistics ]=============================
|                                                                             |
|  Number of variables:         87638                                         |
|  Number of clauses:          161767                                         |
|  Parse time:                   0.04 s                                       |
|                                                                             |
============================[ Search Statistics ]==============================
| Conflicts |          ORIGINAL         |          LEARNT          | Progress |
|           |    Vars  Clauses Literals |    Limit  Clauses Lit/Cl |          |
===============================================================================
|       100 |   63826   110364   275762 |    40466      100     69 | 27.171 % |
|       250 |   63826   110364   275762 |    44513      250     66 | 27.171 % |
|       475 |   63826   110364   275762 |    48964      475     52 | 27.171 % |
|       812 |   53879    81318   204382 |    53861      797     50 | 38.521 % |
|      1318 |   53460    79795   200700 |    59247     1286     55 | 38.999 % |
|      2077 |   53460    79795   200700 |    65172     2045     56 | 38.999 % |
|      3216 |   53375    79703   200489 |    71689     3180     70 | 39.096 % |
|      4924 |   53255    79044   198885 |    78858     4877     62 | 39.233 % |
|      7486 |   53074    78292   197086 |    86744     7425     62 | 39.440 % |
|     11330 |   52817    77560   195335 |    95418    11208     62 | 39.733 % |
|     17096 |   52273    75155   189407 |   104960    16694     64 | 40.354 % |
===============================================================================
restarts              : 86
conflicts             : 23753          (6937 /sec)
decisions             : 74254          (0.00 % random) (21686 /sec)
propagations          : 35683794       (10421474 /sec)
conflict literals     : 1444713        (46.11 % deleted)
Memory used           : 35.04 MB
CPU time              : 3.42406 s

INDETERMINATE
